11
2147483647 94 20 82 49 74 48 95 65 50 33 
94 2147483647 60 19 84 88 5 39 98 49 42 
20 60 2147483647 44 38 85 76 48 70 71 34 
82 19 44 2147483647 97 73 36 83 98 70 66 
49 84 38 97 2147483647 90 46 54 98 55 75 
74 88 85 73 90 2147483647 83 22 53 66 25 
48 5 76 36 46 83 2147483647 90 44 7 57 
95 39 48 83 54 22 90 2147483647 5 30 44 
65 98 70 98 98 53 44 5 2147483647 3 19 
50 49 71 70 55 66 7 30 3 2147483647 64 
33 42 34 66 75 25 57 44 19 64 2147483647 
